9189161892519915519761528924618619642739428169721991527397164283924546915546374692454685193724673761893452732846914679734252896425437964251984345289543428855252895161892543792198137619354546731971928462813491883493737619551944387319643736446462491376723767225585821864923755821859137921685821946821955821685822585582159492159492159492449294259149371838642864837192564182956428372567314685911386495821468673119864921196765821159586492145956731185685911298567311865867311865867311856867311868567311856859111959583712658673145956731769118838641583864